set VV := 0 1 2 3 4 5 6 7 8 9 10 11 ;
set VS := 0 1 2 3 4 5 6 7 8 9 10 11 12 13 14 15 16 17 18 19 20 21 22 23 24 25 26 27 ;
param cv := 
0 10
1 19
2 25
3 14
4 15
5 18
6 15
7 22
8 25
9 15
10 12
11 18
;
param cs := 
0 21
1 22
2 26
3 24
4 27
5 29
6 38
7 32
8 31
9 22
10 34
11 36
12 20
13 29
14 39
15 40
16 32
17 24
18 22
19 22
20 24
21 29
22 28
23 32
24 40
25 22
26 21
27 34
;
param bv:	 0 1 2 3 4 5 6 7 8 9 10 11 := 
		0 0 14 0 0 0 0 0 0 0 0 0 0 
		1 0 0 0 0 0 0 0 0 0 0 12 0 
		2 0 0 0 0 17 0 0 0 0 0 10 0 
		3 0 0 0 0 0 0 0 23 23 0 0 0 
		4 0 0 0 0 0 0 0 0 0 23 0 12 
		5 0 0 0 0 0 0 0 11 0 0 0 0 
		6 0 0 0 0 0 0 0 0 0 20 0 0 
		7 0 0 0 0 0 0 0 0 0 0 15 0 
		8 0 0 0 0 0 0 0 0 0 0 0 0 
		9 0 0 0 0 0 0 0 0 0 0 0 0 
		10 0 0 0 0 0 0 0 0 0 0 0 0 
		11 0 0 0 0 0 0 0 0 0 0 0 0 
;
param bs:	 0 1 2 3 4 5 6 7 8 9 10 11 12 13 14 15 16 17 18 19 20 21 22 23 24 25 26 27 := 
		0 0 0 0 0 32 0 0 0 0 0 0 0 35 0 0 0 0 40 0 0 0 0 33 0 0 34 0 36 
		1 0 0 0 20 0 0 0 0 0 0 0 0 0 0 0 0 0 33 0 0 25 0 0 0 0 0 0 24 
		2 0 0 0 0 0 0 0 0 0 0 0 0 0 0 0 0 25 0 0 0 0 0 0 0 0 0 0 0 
		3 0 20 0 0 0 0 0 0 0 0 0 0 0 0 0 0 0 0 0 0 0 0 0 37 39 0 30 25 
		4 32 0 0 0 0 0 30 0 0 0 0 0 0 0 0 0 0 0 0 0 0 0 0 0 0 0 0 37 
		5 0 0 0 0 0 0 0 0 0 0 0 23 0 0 0 0 0 33 0 0 0 0 0 0 0 0 0 0 
		6 0 0 0 0 30 0 0 0 0 0 0 0 0 0 0 0 0 0 0 0 21 33 20 0 0 0 0 0 
		7 0 0 0 0 0 0 0 0 0 0 0 0 0 0 0 0 0 0 0 0 0 30 0 0 0 0 0 0 
		8 0 0 0 0 0 0 0 0 0 0 28 0 0 0 0 0 0 0 0 0 40 0 0 0 0 0 0 0 
		9 0 0 0 0 0 0 0 0 0 0 0 0 0 25 0 0 0 28 0 0 0 0 26 0 0 0 0 0 
		10 0 0 0 0 0 0 0 0 28 0 0 32 0 0 39 0 0 0 0 0 35 0 0 35 0 0 0 0 
		11 0 0 0 0 0 23 0 0 0 0 32 0 0 38 0 0 0 0 0 0 0 0 0 0 0 0 0 29 
		12 35 0 0 0 0 0 0 0 0 0 0 0 0 0 0 0 0 0 0 0 0 0 29 0 0 0 0 0 
		13 0 0 0 0 0 0 0 0 0 25 0 38 0 0 22 0 0 0 0 0 39 0 0 33 0 30 0 0 
		14 0 0 0 0 0 0 0 0 0 0 39 0 0 22 0 0 0 0 0 0 0 0 0 29 0 0 0 0 
		15 0 0 0 0 0 0 0 0 0 0 0 0 0 0 0 0 28 0 36 0 0 39 0 0 0 0 0 0 
		16 0 0 25 0 0 0 0 0 0 0 0 0 0 0 0 28 0 0 21 0 0 0 0 0 0 0 0 39 
		17 40 33 0 0 0 33 0 0 0 28 0 0 0 0 0 0 0 0 0 0 0 0 0 35 0 0 0 0 
		18 0 0 0 0 0 0 0 0 0 0 0 0 0 0 0 36 21 0 0 0 0 0 0 0 0 0 0 0 
		19 0 0 0 0 0 0 0 0 0 0 0 0 0 0 0 0 0 0 0 0 31 0 31 0 0 0 0 0 
		20 0 25 0 0 0 0 21 0 40 0 35 0 0 39 0 0 0 0 0 31 0 0 0 20 0 0 0 0 
		21 0 0 0 0 0 0 33 30 0 0 0 0 0 0 0 39 0 0 0 0 0 0 0 0 0 0 0 0 
		22 33 0 0 0 0 0 20 0 0 26 0 0 29 0 0 0 0 0 0 31 0 0 0 0 40 0 0 0 
		23 0 0 0 37 0 0 0 0 0 0 35 0 0 33 29 0 0 35 0 0 20 0 0 0 0 0 0 0 
		24 0 0 0 39 0 0 0 0 0 0 0 0 0 0 0 0 0 0 0 0 0 0 40 0 0 0 0 0 
		25 34 0 0 0 0 0 0 0 0 0 0 0 0 30 0 0 0 0 0 0 0 0 0 0 0 0 0 0 
		26 0 0 0 30 0 0 0 0 0 0 0 0 0 0 0 0 0 0 0 0 0 0 0 0 0 0 0 0 
		27 36 24 0 25 37 0 0 0 0 0 0 29 0 0 0 0 39 0 0 0 0 0 0 0 0 0 0 0 
;
